asp/input/in_60_30_6_1.lp
#const n = 60.
#const k = 30.
#const h = 6.
tile(1,21,3).
tile(2,10,28).
tile(3,20,22).
tile(4,3,30).
tile(5,2,8).
tile(6,14,9).
tile(7,1,30).
tile(8,26,10).
tile(9,25,5).
tile(10,5,15).
tile(11,10,13).
tile(12,8,19).
tile(13,25,13).
tile(14,16,27).
tile(15,3,4).
tile(16,6,17).
tile(17,17,12).
tile(18,9,2).
tile(19,23,20).
tile(20,3,14).
tile(21,25,12).
tile(22,27,26).
tile(23,25,12).
tile(24,14,6).
tile(25,14,11).
tile(26,5,7).
tile(27,15,16).
tile(28,24,14).
tile(29,21,7).
tile(30,28,23).
tile(31,27,27).
tile(32,15,10).
tile(33,5,7).
tile(34,21,8).
tile(35,6,17).
tile(36,30,22).
tile(37,29,30).
tile(38,23,30).
tile(39,28,17).
tile(40,25,18).
tile(41,1,22).
tile(42,2,8).
tile(43,5,22).
tile(44,24,29).
tile(45,7,28).
tile(46,24,21).
tile(47,10,13).
tile(48,8,15).
tile(49,23,29).
tile(50,17,15).
tile(51,16,16).
tile(52,21,21).
tile(53,2,25).
tile(54,1,28).
tile(55,16,9).
tile(56,29,17).
tile(57,18,14).
tile(58,3,18).
tile(59,29,26).
tile(60,29,26).
