minizinc/input/in_60_30_6_1.dzn
n = 60;
k = 30;
h = 6;
tiles = array2d(1..n, 1..2,
[ 21,3
, 10,28
, 20,22
, 3,30
, 2,8
, 14,9
, 1,30
, 26,10
, 25,5
, 5,15
, 10,13
, 8,19
, 25,13
, 16,27
, 3,4
, 6,17
, 17,12
, 9,2
, 23,20
, 3,14
, 25,12
, 27,26
, 25,12
, 14,6
, 14,11
, 5,7
, 15,16
, 24,14
, 21,7
, 28,23
, 27,27
, 15,10
, 5,7
, 21,8
, 6,17
, 30,22
, 29,30
, 23,30
, 28,17
, 25,18
, 1,22
, 2,8
, 5,22
, 24,29
, 7,28
, 24,21
, 10,13
, 8,15
, 23,29
, 17,15
, 16,16
, 21,21
, 2,25
, 1,28
, 16,9
, 29,17
, 18,14
, 3,18
, 29,26
, 29,26
]);